
m = 12;

n = 12;

Amin = 57;

Amax = 72;

B = 2736;

lambda = 20.00;

c = 
[[2,4,9,4,10,7,3,8,7,4,3,3],
[6,10,3,5,10,5,5,8,2,7,7,7],
[2,2,3,2,9,4,8,7,6,6,10,3],
[9,2,10,5,3,9,4,7,6,3,10,6],
[7,3,10,5,8,7,10,8,7,3,8,3],
[5,5,8,7,8,5,8,6,6,5,8,5],
[4,8,10,6,10,8,10,4,9,8,7,4],
[4,4,10,7,5,6,6,6,7,3,2,2],
[5,7,5,7,10,2,10,10,8,9,6,5],
[4,3,5,9,9,10,2,9,4,9,5,5],
[4,9,10,7,9,8,6,10,4,9,6,2],
[9,5,10,4,10,3,6,4,3,9,2,10]];
